Sun 20 May 08:59:24 CEST 2018
CPXPARAM_TimeLimit                               45
CPXPARAM_Threads                                 4
CPXPARAM_MIP_Strategy_CallbackReducedLP          0
Tried aggregator 8 times.
MIP Presolve eliminated 3384 rows and 3102 columns.
MIP Presolve modified 950 coefficients.
Aggregator did 2084 substitutions.
Reduced MIP has 3134 rows, 3275 columns, and 8644 nonzeros.
Reduced MIP has 3082 binaries, 13 generals, 0 SOSs, and 696 indicators.
Presolve time = 0.04 sec. (52.41 ticks)
Probing changed sense of 88 constraints.
Probing time = 0.07 sec. (51.00 ticks)
Cover probing fixed 0 vars, tightened 11 bounds.
Tried aggregator 7 times.
MIP Presolve eliminated 88 rows and 88 columns.
MIP Presolve modified 44 coefficients.
Aggregator did 1558 substitutions.
Reduced MIP has 1488 rows, 1629 columns, and 5360 nonzeros.
Reduced MIP has 1436 binaries, 193 generals, 0 SOSs, and 696 indicators.
Presolve time = 0.02 sec. (23.64 ticks)
Probing time = 0.03 sec. (20.81 ticks)
Tried aggregator 1 time.
Reduced MIP has 1488 rows, 1629 columns, and 5360 nonzeros.
Reduced MIP has 1436 binaries, 193 generals, 0 SOSs, and 696 indicators.
Presolve time = 0.00 sec. (5.03 ticks)
Probing time = 0.00 sec. (3.35 ticks)
Clique table members: 15698.
MIP emphasis: balance optimality and feasibility.
MIP search method: dynamic search.
Parallel mode: deterministic, using up to 4 threads.
Root relaxation solution time = 0.01 sec. (11.63 ticks)

        Nodes                                         Cuts/
   Node  Left     Objective  IInf  Best Integer    Best Bound    ItCnt     Gap

      0     0        3.0000   598                      3.0000      275         
*     0+    0                           24.0000        3.0000            87.50%
      0     0        3.0000   432       24.0000  Cliques: 472      528   87.50%
*     0+    0                           23.0000        3.0000            86.96%
      0     0        3.0000   272       23.0000  Cliques: 472      810   86.96%
*     0+    0                           20.0000        3.0000            85.00%
      0     0        3.0000   239       20.0000  Cliques: 472     1136   85.00%
      0     0        3.0000   138       20.0000  Cliques: 472     1340   85.00%
      0     0        3.0000   269       20.0000     Cuts: 274     1546   85.00%
*     0+    0                           17.0000        3.0000            82.35%
      0     0        3.0000   232       17.0000     Cuts: 472     1740   82.35%

Repeating presolve.
Tried aggregator 3 times.
MIP Presolve eliminated 511 rows and 521 columns.
Aggregator did 4 substitutions.
Reduced MIP has 973 rows, 1090 columns, and 3482 nonzeros.
Reduced MIP has 961 binaries, 129 generals, 0 SOSs, and 456 indicators.
Presolve time = 0.01 sec. (8.64 ticks)
Probing time = 0.01 sec. (10.06 ticks)
Tried aggregator 1 time.
Reduced MIP has 973 rows, 1090 columns, and 3482 nonzeros.
Reduced MIP has 961 binaries, 129 generals, 0 SOSs, and 456 indicators.
Presolve time = 0.00 sec. (3.32 ticks)
Represolve time = 0.05 sec. (54.41 ticks)
Probing time = 0.00 sec. (2.71 ticks)
Clique table members: 6481.
MIP emphasis: balance optimality and feasibility.
MIP search method: dynamic search.
Parallel mode: deterministic, using up to 4 threads.
Root relaxation solution time = 0.01 sec. (10.07 ticks)

        Nodes                                         Cuts/
   Node  Left     Objective  IInf  Best Integer    Best Bound    ItCnt     Gap

*     0+    0                           17.0000        3.0000            82.35%
      0     0        3.0000   368       17.0000        3.0000     1924   82.35%
*     0+    0                           15.0000        3.0000            80.00%
      0     0        3.0000   298       15.0000  Cliques: 343     2137   80.00%
      0     0        3.0000   212       15.0000  Cliques: 343     2335   80.00%
      0     0        3.0000   203       15.0000  Cliques: 343     2520   80.00%
      0     0        3.0000   149       15.0000     Cuts: 343     2726   80.00%
      0     0        3.0000   211       15.0000  Cliques: 343     3036   80.00%
      0     0        3.0000   146       15.0000     Cuts: 210     3310   80.00%
      0     0        3.0000   154       15.0000  Cliques: 343     3369   80.00%
      0     2        3.0000   154       15.0000        3.0000     3369   80.00%
Elapsed time = 2.03 sec. (1934.84 ticks, tree = 0.01 MB, solutions = 5)
     49     8        8.0000   105       15.0000        3.0000     9050   80.00%
    144    20        3.6080   142       15.0000        3.0359    20578   79.76%
    254    19       14.0000    55       15.0000        5.1389    30922   65.74%
    417    12    infeasible             15.0000       14.0000    40860    6.67%

Clique cuts applied:  611
Cover cuts applied:  2
Implied bound cuts applied:  200
Zero-half cuts applied:  68

Root node processing (before b&c):
  Real time             =    2.03 sec. (1934.31 ticks)
Parallel b&c, 4 threads:
  Real time             =    1.06 sec. (986.82 ticks)
  Sync time (average)   =    0.22 sec.
  Wait time (average)   =    0.00 sec.
                          ------------
Total (root+branch&cut) =    3.09 sec. (2921.13 ticks)
   | W
 L |  0  1  2 
-------------
 0 |  5  5  5 
 1 | 12 12 12 
 2 | 12 12 12 
 3 | 12 12 12 
 4 | 11 11 11 
 5 | 11 11 11 
 6 | 11 11 11 
 7 |  9  9  1 
 8 |  9  9  2 
 9 |  .  7  7 
10 |  3  7  7 
11 |  4  8  8 
12 |  6  8  8 
13 |  6 10 10 
14 |  6 10 10 
15 |  .  .  . 
16 |  .  .  . 
17 |  .  .  . 
18 |  .  .  . 
19 |  .  .  . 
20 |  .  .  . 
21 |  .  .  . 
22 |  .  .  . 
23 |  .  .  . 

Boxes' corners:       (w,l)
    Box  1 is at 
        top left     (2,7)
        bottom right (2,7)

    Box  2 is at 
        top left     (2,8)
        bottom right (2,8)

    Box  3 is at 
        top left     (0,10)
        bottom right (0,10)

    Box  4 is at 
        top left     (0,11)
        bottom right (0,11)

    Box  5 is at 
        top left     (0,0)
        bottom right (2,0)

    Box  6 is at 
        top left     (0,12)
        bottom right (0,14)

    Box  7 is at 
        top left     (1,9)
        bottom right (2,10)

    Box  8 is at 
        top left     (1,11)
        bottom right (2,12)

    Box  9 is at 
        top left     (0,7)
        bottom right (1,8)

    Box 10 is at 
        top left     (1,13)
        bottom right (2,14)

    Box 11 is at 
        top left     (0,4)
        bottom right (2,6)

    Box 12 is at 
        top left     (0,1)
        bottom right (2,3)

    Roll length used: 15
In 9.85 seconds
